c description: Random 3-CNF over 15 variables and 30 clauses
c generator: CNFgen (0.9.0)
c copyright: (C) 2012-2020 Massimo Lauria <massimo.lauria@uniroma1.it>
c url: https://massimolauria.net/cnfgen
c
p cnf 15 30
-8 13 14 0
9 11 14 0
-1 3 6 0
-9 -12 -14 0
2 7 -8 0
-3 7 14 0
-1 -11 -14 0
2 7 -10 0
-6 7 14 0
-1 2 8 0
-5 -6 -13 0
-1 -3 14 0
-4 -7 9 0
2 -3 12 0
-2 7 14 0
-2 -8 9 0
-2 5 15 0
5 11 14 0
-6 7 -13 0
4 7 -14 0
-2 -4 6 0
2 8 -14 0
5 -11 -13 0
5 -12 15 0
-2 10 -12 0
2 -9 -15 0
4 -6 12 0
1 -12 -15 0
1 -7 -11 0
-2 -8 13 0